c 
c G(k,n,p) graph
c graph gen seed     : 7931
c number of vertices : 50
c max number of edges: 625
c number of classes  : 2
c edge density       : 0.200000
c edge probability   : 0.400000
c data structure     : sparse
c
c           Graph Stats
c number of vertices  : 50
c nonisolated vertices: 50
c number of edges     : 241
c edge density        : 0.196735
c max degree          : 17
c avg degree          : 9.64
c min degree          : 4
p col 50 241
e 1 40
e 1 38
e 1 31
e 1 29
e 1 14
e 1 13
e 1 12
e 1 11
e 1 6
e 1 5
e 2 46
e 2 41
e 2 40
e 2 36
e 2 33
e 2 31
e 2 17
e 2 14
e 2 13
e 2 11
e 2 10
e 2 7
e 2 6
e 2 5
e 3 44
e 3 43
e 3 17
e 3 14
e 4 44
e 4 40
e 4 33
e 4 29
e 4 17
e 5 49
e 5 48
e 5 32
e 5 30
e 5 27
e 5 9
e 6 49
e 6 47
e 6 45
e 6 42
e 6 34
e 6 27
e 6 22
e 6 16
e 6 8
e 7 50
e 7 48
e 7 47
e 7 42
e 7 30
e 7 28
e 7 27
e 7 22
e 7 21
e 7 8
e 8 41
e 8 33
e 8 31
e 8 13
e 9 41
e 9 38
e 9 31
e 9 29
e 9 17
e 9 15
e 9 14
e 9 13
e 9 11
e 9 10
e 10 37
e 10 34
e 10 32
e 10 28
e 10 20
e 11 49
e 11 48
e 11 45
e 11 37
e 11 35
e 11 34
e 11 32
e 11 30
e 11 26
e 11 25
e 11 20
e 12 49
e 12 48
e 12 47
e 12 42
e 12 37
e 12 34
e 12 32
e 12 28
e 12 27
e 12 24
e 12 18
e 13 35
e 13 32
e 13 20
e 13 18
e 14 50
e 14 42
e 14 34
e 14 24
e 14 22
e 14 20
e 15 50
e 15 49
e 15 37
e 15 35
e 15 34
e 15 32
e 15 25
e 15 20
e 15 18
e 15 16
e 16 46
e 16 38
e 16 36
e 16 31
e 16 19
e 17 50
e 17 49
e 17 37
e 17 35
e 17 34
e 17 24
e 18 40
e 19 50
e 19 49
e 19 37
e 19 34
e 19 30
e 19 27
e 19 25
e 19 20
e 20 44
e 20 43
e 20 40
e 20 29
e 20 23
e 21 46
e 21 40
e 21 39
e 21 38
e 21 31
e 22 43
e 22 41
e 22 40
e 22 39
e 22 33
e 23 50
e 23 49
e 23 45
e 23 35
e 23 32
e 23 30
e 24 44
e 24 41
e 24 40
e 24 38
e 25 43
e 25 41
e 25 40
e 25 39
e 25 31
e 25 29
e 26 46
e 26 40
e 26 33
e 26 31
e 26 29
e 27 46
e 27 44
e 27 38
e 27 29
e 28 39
e 28 38
e 28 36
e 28 33
e 28 31
e 28 29
e 29 49
e 29 48
e 29 42
e 29 37
e 29 30
e 30 41
e 30 36
e 30 31
e 31 50
e 31 49
e 31 47
e 31 45
e 31 35
e 31 34
e 31 32
e 32 39
e 32 36
e 32 33
e 33 50
e 33 48
e 33 47
e 33 35
e 33 34
e 34 41
e 34 40
e 35 44
e 35 41
e 35 40
e 35 39
e 36 50
e 36 49
e 36 48
e 36 42
e 37 46
e 37 44
e 37 39
e 37 38
e 38 49
e 38 47
e 38 45
e 39 48
e 40 48
e 40 47
e 40 45
e 40 42
e 41 50
e 41 48
e 41 45
e 42 46
e 42 44
e 42 43
e 43 45
e 44 49
e 44 47
e 46 50
e 46 48
